400 800
1 2 2
1 21 1
2 3 5
2 22 1
3 4 1
3 23 2
4 5 1
4 24 5
5 6 4
5 25 4
6 7 1
6 26 3
7 8 5
7 27 1
8 9 2
8 28 2
9 10 2
9 29 2
10 11 3
10 30 1
11 12 5
11 31 1
12 13 4
12 32 1
13 14 3
13 33 2
14 15 4
14 34 1
15 16 5
15 35 3
16 17 2
16 36 2
17 18 1
17 37 4
18 19 4
18 38 1
19 20 2
19 39 4
20 40 2
21 22 4
21 41 4
22 23 4
22 42 5
23 24 2
23 43 1
24 25 2
24 44 1
25 26 5
25 45 2
26 27 5
26 46 2
27 28 2
27 47 3
28 29 4
28 48 5
29 30 4
29 49 5
30 31 2
30 50 2
31 32 5
31 51 5
32 33 2
32 52 3
33 34 4
33 53 5
34 35 2
34 54 5
35 36 5
35 55 3
36 37 5
36 56 1
37 38 3
37 57 3
38 39 1
38 58 1
39 40 1
39 59 4
40 60 2
41 42 3
41 61 1
42 43 2
42 62 5
43 44 1
43 63 1
44 45 2
44 64 3
45 46 4
45 65 3
46 47 5
46 66 2
47 48 2
47 67 3
48 49 4
48 68 5
49 50 3
49 69 1
50 51 1
50 70 2
51 52 2
51 71 5
52 53 5
52 72 5
53 54 5
53 73 2
54 55 2
54 74 2
55 56 3
55 75 5
56 57 4
56 76 3
57 58 1
57 77 1
58 59 1
58 78 5
59 60 1
59 79 3
60 80 2
61 62 4
61 81 2
62 63 1
62 82 3
63 64 3
63 83 1
64 65 2
64 84 3
65 66 1
65 85 4
66 67 3
66 86 4
67 68 2
67 87 3
68 69 4
68 88 2
69 70 3
69 89 4
70 71 1
70 90 5
71 72 2
71 91 5
72 73 3
72 92 3
73 74 5
73 93 4
74 75 1
74 94 2
75 76 1
75 95 2
76 77 2
76 96 5
77 78 5
77 97 5
78 79 4
78 98 4
79 80 2
79 99 4
80 100 5
81 82 5
81 101 1
82 83 1
82 102 4
83 84 5
83 103 5
84 85 2
84 104 4
85 86 1
85 105 2
86 87 3
86 106 2
87 88 2
87 107 2
88 89 5
88 108 5
89 90 3
89 109 2
90 91 5
90 110 3
91 92 3
91 111 3
92 93 2
92 112 1
93 94 2
93 113 3
94 95 3
94 114 1
95 96 5
95 115 2
96 97 2
96 116 1
97 98 2
97 117 2
98 99 1
98 118 2
99 100 1
99 119 5
100 120 5
101 102 3
101 121 3
102 103 5
102 122 5
103 104 1
103 123 4
104 105 3
104 124 3
105 106 3
105 125 5
106 107 2
106 126 4
107 108 4
107 127 4
108 109 2
108 128 1
109 110 1
109 129 3
110 111 2
110 130 4
111 112 5
111 131 3
112 113 5
112 132 2
113 114 3
113 133 5
114 115 1
114 134 1
115 116 3
115 135 3
116 117 2
116 136 1
117 118 2
117 137 3
118 119 1
118 138 5
119 120 5
119 139 3
120 140 4
121 122 1
121 141 5
122 123 2
122 142 4
123 124 2
123 143 3
124 125 4
124 144 3
125 126 5
125 145 4
126 127 2
126 146 3
127 128 2
127 147 5
128 129 2
128 148 2
129 130 3
129 149 1
130 131 3
130 150 3
131 132 2
131 151 1
132 133 3
132 152 4
133 134 3
133 153 1
134 135 4
134 154 3
135 136 5
135 155 5
136 137 2
136 156 4
137 138 5
137 157 2
138 139 4
138 158 5
139 140 5
139 159 4
140 160 2
141 142 5
141 161 4
142 143 3
142 162 3
143 144 3
143 163 5
144 145 3
144 164 4
145 146 4
145 165 4
146 147 5
146 166 5
147 148 5
147 167 4
148 149 1
148 168 4
149 150 5
149 169 5
150 151 2
150 170 1
151 152 2
151 171 4
152 153 4
152 172 4
153 154 1
153 173 4
154 155 1
154 174 2
155 156 1
155 175 1
156 157 5
156 176 1
157 158 4
157 177 4
158 159 2
158 178 1
159 160 4
159 179 3
160 180 3
161 162 2
161 181 5
162 163 3
162 182 5
163 164 4
163 183 3
164 165 4
164 184 5
165 166 3
165 185 4
166 167 3
166 186 4
167 168 4
167 187 2
168 169 2
168 188 1
169 170 1
169 189 1
170 171 5
170 190 3
171 172 5
171 191 1
172 173 2
172 192 5
173 174 3
173 193 3
174 175 5
174 194 5
175 176 2
175 195 4
176 177 5
176 196 1
177 178 5
177 197 1
178 179 2
178 198 3
179 180 4
179 199 5
180 200 3
181 182 4
181 201 2
182 183 3
182 202 3
183 184 4
183 203 4
184 185 4
184 204 3
185 186 4
185 205 1
186 187 5
186 206 1
187 188 4
187 207 4
188 189 5
188 208 2
189 190 3
189 209 3
190 191 2
190 210 1
191 192 3
191 211 3
192 193 4
192 212 2
193 194 5
193 213 3
194 195 1
194 214 1
195 196 2
195 215 5
196 197 5
196 216 2
197 198 2
197 217 2
198 199 1
198 218 3
199 200 5
199 219 5
200 220 5
201 202 3
201 221 1
202 203 5
202 222 5
203 204 3
203 223 5
204 205 3
204 224 2
205 206 5
205 225 5
206 207 1
206 226 5
207 208 1
207 227 2
208 209 4
208 228 3
209 210 3
209 229 4
210 211 2
210 230 2
211 212 3
211 231 2
212 213 1
212 232 4
213 214 4
213 233 2
214 215 4
214 234 1
215 216 1
215 235 4
216 217 5
216 236 3
217 218 3
217 237 3
218 219 3
218 238 2
219 220 1
219 239 2
220 240 4
221 222 1
221 241 4
222 223 1
222 242 1
223 224 3
223 243 1
224 225 3
224 244 3
225 226 5
225 245 2
226 227 4
226 246 2
227 228 2
227 247 4
228 229 2
228 248 5
229 230 3
229 249 2
230 231 5
230 250 5
231 232 4
231 251 4
232 233 3
232 252 5
233 234 4
233 253 3
234 235 2
234 254 1
235 236 2
235 255 5
236 237 1
236 256 3
237 238 5
237 257 2
238 239 1
238 258 3
239 240 1
239 259 1
240 260 1
241 242 4
241 261 5
242 243 5
242 262 3
243 244 1
243 263 5
244 245 1
244 264 2
245 246 2
245 265 4
246 247 2
246 266 3
247 248 3
247 267 3
248 249 3
248 268 3
249 250 3
249 269 4
250 251 1
250 270 1
251 252 1
251 271 5
252 253 2
252 272 2
253 254 3
253 273 2
254 255 4
254 274 2
255 256 1
255 275 2
256 257 4
256 276 5
257 258 3
257 277 2
258 259 5
258 278 5
259 260 4
259 279 2
260 280 1
261 262 3
261 281 3
262 263 2
262 282 3
263 264 5
263 283 1
264 265 4
264 284 5
265 266 4
265 285 5
266 267 5
266 286 5
267 268 2
267 287 5
268 269 1
268 288 3
269 270 4
269 289 2
270 271 4
270 290 2
271 272 2
271 291 5
272 273 2
272 292 4
273 274 2
273 293 3
274 275 1
274 294 2
275 276 3
275 295 1
276 277 4
276 296 1
277 278 3
277 297 5
278 279 3
278 298 2
279 280 4
279 299 3
280 300 2
281 282 2
281 301 1
282 283 4
282 302 2
283 284 5
283 303 3
284 285 1
284 304 1
285 286 2
285 305 4
286 287 2
286 306 1
287 288 4
287 307 5
288 289 1
288 308 2
289 290 2
289 309 3
290 291 5
290 310 5
291 292 2
291 311 3
292 293 5
292 312 2
293 294 3
293 313 5
294 295 1
294 314 5
295 296 3
295 315 5
296 297 5
296 316 3
297 298 1
297 317 2
298 299 2
298 318 4
299 300 1
299 319 1
300 320 2
301 302 1
301 321 1
302 303 4
302 322 1
303 304 4
303 323 3
304 305 5
304 324 3
305 306 5
305 325 1
306 307 3
306 326 3
307 308 4
307 327 1
308 309 2
308 328 1
309 310 1
309 329 5
310 311 1
310 330 5
311 312 5
311 331 4
312 313 3
312 332 2
313 314 1
313 333 5
314 315 2
314 334 1
315 316 1
315 335 4
316 317 3
316 336 2
317 318 5
317 337 4
318 319 1
318 338 1
319 320 3
319 339 3
320 340 2
321 322 5
321 341 3
322 323 2
322 342 3
323 324 1
323 343 3
324 325 5
324 344 3
325 326 2
325 345 5
326 327 2
326 346 1
327 328 4
327 347 2
328 329 3
328 348 3
329 330 4
329 349 5
330 331 2
330 350 3
331 332 4
331 351 1
332 333 4
332 352 2
333 334 2
333 353 4
334 335 5
334 354 5
335 336 1
335 355 2
336 337 2
336 356 1
337 338 2
337 357 4
338 339 1
338 358 2
339 340 4
339 359 1
340 360 3
341 342 1
341 361 2
342 343 5
342 362 2
343 344 2
343 363 1
344 345 5
344 364 4
345 346 3
345 365 5
346 347 4
346 366 2
347 348 1
347 367 3
348 349 3
348 368 3
349 350 4
349 369 2
350 351 1
350 370 1
351 352 2
351 371 3
352 353 4
352 372 1
353 354 1
353 373 3
354 355 1
354 374 3
355 356 3
355 375 5
356 357 5
356 376 4
357 358 5
357 377 4
358 359 3
358 378 3
359 360 1
359 379 4
360 380 3
361 362 5
361 381 1
362 363 3
362 382 2
363 364 1
363 383 4
364 365 2
364 384 2
365 366 4
365 385 1
366 367 5
366 386 2
367 368 5
367 387 2
368 369 4
368 388 1
369 370 4
369 389 2
370 371 2
370 390 4
371 372 4
371 391 3
372 373 3
372 392 2
373 374 2
373 393 4
374 375 4
374 394 2
375 376 1
375 395 1
376 377 4
376 396 3
377 378 3
377 397 1
378 379 3
378 398 5
379 380 4
379 399 2
380 400 1
381 382 2
382 383 5
383 384 4
384 385 2
385 386 4
386 387 4
387 388 2
388 389 3
389 390 4
390 391 5
391 392 1
392 393 4
393 394 2
394 395 3
395 396 2
396 397 2
397 398 1
398 399 5
399 400 4
1 381 5
2 382 1
3 383 5
4 384 4
5 385 4
6 386 3
7 387 3
8 388 3
9 389 1
10 390 4
11 391 2
12 392 5
13 393 4
14 394 1
15 395 3
16 396 2
17 397 3
18 398 4
19 399 3
20 400 3
1 20 2
21 40 3
41 60 4
61 80 1
81 100 3
101 120 3
121 140 3
141 160 5
161 180 1
181 200 3
201 220 4
221 240 5
241 260 2
261 280 3
281 300 1
301 320 2
321 340 5
341 360 5
361 380 3
381 400 2
